p cnf 10 50
7 -9 -2 0
-6 9 2 0
9 -1 8 0
-3 9 -4 0
-6 1 9 0
2 -8 -3 0
-2 5 -9 0
5 10 -2 0
-3 10 8 0
-8 4 -2 0
-1 -5 -9 0
-3 -6 1 0
-6 7 4 0
1 3 -7 0
4 -8 -3 0
-10 -7 8 0
-10 -5 -7 0
-2 -6 4 0
-10 8 9 0
2 -6 -9 0
10 2 -5 0
-7 -1 10 0
-1 2 10 0
-3 -6 4 0
-2 3 -1 0
5 2 9 0
7 4 3 0
-8 9 -4 0
-7 -9 -8 0
-7 3 -9 0
7 -6 3 0
4 -2 7 0
-6 8 -5 0
10 -8 1 0
7 -6 -3 0
10 2 8 0
-8 -6 -3 0
-6 5 7 0
10 -6 9 0
-5 6 3 0
-1 -5 -10 0
-3 -7 -2 0
-5 -6 4 0
-8 6 3 0
-7 8 -4 0
9 5 1 0
4 8 -2 0
-10 -1 4 0
-2 -6 4 0
-7 10 1 0
